70
1463
5
91
64
78
52
90
0 1
0 3
0 4
0 5
0 6
0 7
0 9
0 10
0 18
0 19
0 22
0 23
0 26
0 27
0 28
0 29
0 30
0 31
0 32
0 34
0 35
0 40
0 44
0 45
0 46
0 49
0 50
0 51
0 52
0 56
0 58
0 61
0 62
0 63
0 64
0 65
0 66
0 67
0 69
1 2
1 3
1 5
1 6
1 8
1 10
1 14
1 15
1 16
1 17
1 20
1 21
1 22
1 23
1 24
1 25
1 26
1 28
1 29
1 30
1 31
1 33
1 34
1 40
1 41
1 42
1 43
1 44
1 45
1 46
1 48
1 49
1 51
1 53
1 54
1 55
1 56
1 60
1 61
1 62
1 65
1 66
1 69
2 4
2 5
2 7
2 8
2 11
2 12
2 13
2 15
2 16
2 17
2 19
2 20
2 21
2 22
2 26
2 27
2 28
2 29
2 30
2 31
2 33
2 34
2 35
2 39
2 40
2 42
2 43
2 44
2 45
2 46
2 47
2 48
2 49
2 52
2 53
2 54
2 55
2 56
2 57
2 58
2 60
2 62
2 63
2 65
2 66
2 68
3 4
3 6
3 7
3 8
3 9
3 10
3 12
3 13
3 14
3 16
3 17
3 20
3 22
3 23
3 24
3 25
3 26
3 27
3 28
3 29
3 30
3 32
3 33
3 34
3 37
3 39
3 40
3 41
3 43
3 44
3 45
3 46
3 49
3 51
3 52
3 56
3 57
3 59
3 60
3 61
3 65
3 66
3 68
3 69
4 6
4 7
4 8
4 9
4 10
4 11
4 12
4 13
4 15
4 17
4 19
4 20
4 21
4 23
4 24
4 26
4 27
4 28
4 29
4 33
4 34
4 35
4 37
4 38
4 41
4 43
4 44
4 46
4 47
4 48
4 51
4 53
4 56
4 57
4 58
4 60
4 63
4 64
4 65
4 66
5 8
5 11
5 12
5 13
5 15
5 16
5 23
5 25
5 26
5 30
5 32
5 35
5 40
5 42
5 43
5 44
5 45
5 46
5 47
5 48
5 51
5 53
5 55
5 56
5 57
5 58
5 60
5 61
5 63
5 65
5 66
5 67
5 68
5 69
6 9
6 10
6 13
6 14
6 15
6 16
6 17
6 18
6 20
6 21
6 24
6 25
6 26
6 27
6 29
6 31
6 32
6 34
6 38
6 39
6 40
6 41
6 42
6 43
6 44
6 47
6 49
6 50
6 51
6 56
6 57
6 59
6 60
6 61
6 63
6 64
6 65
6 67
7 8
7 9
7 10
7 11
7 12
7 13
7 17
7 18
7 20
7 21
7 26
7 27
7 28
7 29
7 30
7 32
7 34
7 35
7 36
7 38
7 40
7 42
7 43
7 45
7 46
7 47
7 49
7 51
7 54
7 56
7 61
7 63
7 64
7 65
7 66
7 67
7 68
7 69
8 9
8 10
8 11
8 14
8 15
8 16
8 19
8 20
8 21
8 22
8 23
8 24
8 25
8 26
8 29
8 30
8 32
8 35
8 36
8 37
8 38
8 40
8 42
8 43
8 45
8 46
8 47
8 48
8 53
8 56
8 57
8 59
8 60
8 61
8 62
8 63
8 64
8 65
8 66
8 68
8 69
9 10
9 13
9 14
9 16
9 17
9 18
9 23
9 24
9 25
9 26
9 27
9 28
9 29
9 30
9 31
9 32
9 33
9 35
9 37
9 38
9 39
9 40
9 41
9 42
9 45
9 46
9 49
9 51
9 53
9 54
9 55
9 56
9 57
9 59
9 60
9 62
9 63
9 64
9 66
9 67
9 68
10 11
10 12
10 13
10 14
10 15
10 16
10 17
10 18
10 23
10 24
10 25
10 26
10 28
10 29
10 30
10 31
10 33
10 34
10 35
10 36
10 38
10 39
10 41
10 42
10 43
10 45
10 47
10 48
10 49
10 50
10 53
10 54
10 55
10 58
10 61
10 62
10 67
10 68
10 69
11 12
11 13
11 14
11 16
11 19
11 21
11 22
11 23
11 25
11 30
11 32
11 33
11 34
11 36
11 38
11 39
11 40
11 42
11 44
11 47
11 48
11 50
11 51
11 52
11 56
11 57
11 62
11 63
11 65
11 66
11 67
12 13
12 15
12 16
12 17
12 18
12 21
12 22
12 25
12 26
12 27
12 29
12 31
12 32
12 34
12 35
12 37
12 38
12 42
12 43
12 45
12 47
12 48
12 50
12 53
12 54
12 55
12 56
12 59
12 60
12 61
12 62
12 63
12 64
12 65
12 66
12 67
12 68
13 15
13 16
13 17
13 18
13 19
13 20
13 23
13 24
13 25
13 29
13 30
13 38
13 39
13 40
13 42
13 43
13 45
13 46
13 48
13 49
13 51
13 52
13 54
13 56
13 57
13 58
13 59
13 60
13 63
13 64
13 66
13 67
13 69
14 15
14 16
14 17
14 20
14 21
14 23
14 24
14 25
14 26
14 27
14 28
14 29
14 30
14 32
14 33
14 34
14 35
14 37
14 38
14 39
14 42
14 45
14 47
14 48
14 51
14 53
14 55
14 56
14 57
14 59
14 60
14 61
14 63
14 64
14 65
14 67
14 68
14 69
15 16
15 17
15 18
15 19
15 20
15 23
15 25
15 26
15 30
15 35
15 37
15 38
15 39
15 40
15 41
15 42
15 43
15 45
15 46
15 51
15 52
15 53
15 56
15 58
15 59
15 63
15 66
15 67
15 68
16 17
16 18
16 19
16 20
16 21
16 22
16 23
16 24
16 25
16 27
16 28
16 30
16 32
16 34
16 38
16 39
16 41
16 42
16 43
16 44
16 47
16 48
16 49
16 50
16 53
16 54
16 56
16 57
16 58
16 59
16 61
16 62
16 63
16 65
16 68
16 69
17 18
17 19
17 20
17 23
17 24
17 25
17 27
17 29
17 34
17 35
17 37
17 38
17 40
17 41
17 42
17 44
17 45
17 48
17 49
17 50
17 51
17 52
17 53
17 54
17 55
17 56
17 58
17 59
17 60
17 62
17 65
17 67
17 69
18 19
18 20
18 23
18 24
18 25
18 27
18 30
18 31
18 34
18 37
18 38
18 39
18 40
18 41
18 42
18 44
18 46
18 48
18 51
18 52
18 53
18 60
18 61
18 62
18 63
18 66
18 68
19 20
19 21
19 22
19 24
19 27
19 28
19 29
19 32
19 33
19 34
19 36
19 37
19 38
19 39
19 41
19 43
19 44
19 46
19 47
19 48
19 49
19 51
19 54
19 55
19 57
19 58
19 59
19 60
19 62
19 63
19 64
19 65
19 66
19 67
19 68
19 69
20 26
20 27
20 28
20 29
20 30
20 31
20 32
20 33
20 34
20 35
20 36
20 37
20 39
20 40
20 41
20 42
20 43
20 48
20 49
20 50
20 51
20 53
20 57
20 59
20 61
20 63
20 64
20 65
20 66
21 24
21 25
21 26
21 27
21 28
21 31
21 35
21 39
21 43
21 44
21 45
21 46
21 48
21 49
21 50
21 51
21 52
21 53
21 55
21 57
21 60
21 64
21 65
21 67
21 68
22 25
22 26
22 27
22 30
22 33
22 34
22 36
22 37
22 47
22 48
22 49
22 50
22 51
22 52
22 53
22 54
22 56
22 59
22 60
22 61
22 63
22 66
22 69
23 24
23 25
23 26
23 28
23 29
23 30
23 32
23 33
23 36
23 37
23 38
23 42
23 43
23 45
23 46
23 47
23 49
23 50
23 51
23 52
23 53
23 54
23 59
23 61
23 62
23 63
23 65
23 67
23 69
24 25
24 33
24 36
24 37
24 38
24 41
24 44
24 46
24 47
24 49
24 50
24 54
24 55
24 57
24 58
24 60
24 62
24 63
24 64
24 66
24 68
25 26
25 27
25 29
25 30
25 31
25 33
25 34
25 35
25 36
25 38
25 40
25 42
25 43
25 45
25 46
25 47
25 48
25 51
25 54
25 55
25 56
25 57
25 59
25 61
25 63
25 64
25 65
25 66
25 67
25 68
26 28
26 29
26 30
26 32
26 33
26 34
26 40
26 41
26 43
26 44
26 46
26 47
26 49
26 55
26 56
26 58
26 61
26 62
26 63
26 65
26 66
26 67
27 28
27 29
27 30
27 34
27 36
27 38
27 42
27 48
27 49
27 50
27 51
27 52
27 53
27 54
27 55
27 56
27 59
27 60
27 64
27 66
27 68
27 69
28 30
28 32
28 34
28 36
28 37
28 39
28 40
28 44
28 45
28 46
28 47
28 49
28 50
28 52
28 53
28 55
28 56
28 58
28 59
28 62
28 65
28 66
28 68
29 30
29 32
29 35
29 38
29 39
29 40
29 41
29 42
29 44
29 49
29 50
29 51
29 53
29 56
29 57
29 59
29 61
29 62
29 65
29 66
29 68
29 69
30 31
30 33
30 34
30 36
30 37
30 38
30 39
30 40
30 41
30 42
30 44
30 45
30 46
30 48
30 49
30 50
30 51
30 52
30 53
30 54
30 55
30 57
30 59
30 60
30 61
30 62
30 63
30 64
30 65
30 66
30 67
31 33
31 34
31 35
31 37
31 38
31 40
31 47
31 49
31 50
31 53
31 54
31 55
31 56
31 57
31 58
31 61
31 64
31 65
31 69
32 38
32 39
32 41
32 42
32 43
32 44
32 45
32 46
32 47
32 49
32 50
32 51
32 53
32 54
32 56
32 60
32 61
32 65
33 34
33 35
33 36
33 37
33 38
33 39
33 40
33 43
33 46
33 48
33 49
33 51
33 52
33 53
33 56
33 57
33 58
33 59
33 60
33 61
33 62
33 65
33 66
33 67
34 37
34 38
34 39
34 40
34 44
34 45
34 47
34 48
34 49
34 51
34 53
34 54
34 55
34 56
34 58
34 61
34 62
34 63
34 67
34 68
35 38
35 39
35 40
35 41
35 45
35 47
35 48
35 49
35 53
35 54
35 55
35 56
35 58
35 60
35 61
35 64
35 66
35 67
36 37
36 38
36 39
36 40
36 41
36 42
36 43
36 44
36 45
36 48
36 53
36 56
36 57
36 58
36 59
36 60
36 62
36 63
36 65
36 67
37 38
37 41
37 44
37 45
37 46
37 47
37 49
37 50
37 51
37 53
37 55
37 56
37 57
37 58
37 59
37 60
37 62
37 63
37 64
37 65
37 66
37 67
37 69
38 39
38 40
38 41
38 43
38 45
38 46
38 47
38 48
38 49
38 53
38 54
38 55
38 56
38 57
38 58
38 59
38 60
38 62
38 64
38 65
38 67
38 68
38 69
39 40
39 41
39 43
39 46
39 49
39 50
39 52
39 53
39 54
39 57
39 58
39 61
39 64
39 65
39 66
39 68
39 69
40 41
40 42
40 44
40 46
40 48
40 52
40 54
40 55
40 56
40 57
40 58
40 59
40 63
40 66
40 67
41 44
41 45
41 47
41 48
41 49
41 50
41 51
41 52
41 54
41 56
41 58
41 59
41 60
41 61
41 63
41 64
41 67
41 68
42 43
42 45
42 46
42 49
42 50
42 51
42 53
42 54
42 55
42 56
42 57
42 58
42 59
42 60
42 62
42 64
42 67
42 68
43 44
43 46
43 47
43 48
43 49
43 52
43 54
43 55
43 57
43 60
43 61
43 62
43 63
43 64
43 68
44 46
44 48
44 49
44 50
44 51
44 52
44 53
44 56
44 57
44 58
44 59
44 60
44 61
44 62
44 63
44 65
44 66
44 67
44 68
45 46
45 47
45 49
45 50
45 54
45 59
45 60
45 61
45 64
45 66
45 67
45 68
46 49
46 50
46 51
46 55
46 59
46 60
46 61
46 62
46 64
46 66
46 68
46 69
47 49
47 51
47 52
47 53
47 54
47 56
47 60
47 61
47 62
47 63
47 64
47 66
47 67
48 50
48 52
48 53
48 54
48 55
48 56
48 57
48 62
48 63
48 64
48 65
48 67
48 69
49 51
49 52
49 53
49 55
49 56
49 57
49 59
49 61
49 62
49 63
49 64
49 66
49 68
50 51
50 52
50 54
50 55
50 56
50 57
50 58
50 59
50 66
50 68
50 69
51 52
51 55
51 56
51 57
51 59
51 62
51 63
51 64
51 65
51 66
51 69
52 54
52 55
52 56
52 58
52 59
52 60
52 61
52 62
52 66
52 67
52 69
53 58
53 59
53 60
53 61
53 63
53 66
53 67
53 68
54 55
54 56
54 57
54 60
54 61
54 63
54 64
54 65
54 67
54 68
54 69
55 57
55 59
55 60
55 62
55 63
55 64
55 66
55 67
55 68
55 69
56 57
56 58
56 59
56 60
56 62
56 64
56 65
56 68
56 69
57 64
57 65
57 67
57 69
58 59
58 61
58 62
58 63
58 64
58 65
58 66
58 67
58 69
59 61
59 62
59 63
59 64
59 65
59 67
59 69
60 62
60 63
60 64
61 62
61 64
61 68
61 69
62 63
62 66
62 68
62 69
63 67
63 69
64 65
64 66
64 68
65 66
65 67
66 67
66 69
67 68
68 69
24 2 47 39 44 30 43 25 13 33 32 31 40 26
14 55 23 51 20 69 41 3 5 56 15 22 28 19
64 59 67 21 36 45 34 37 42 63 18 52 58 6
10 49 35 65 8 61 7 62 53 0 27 57 29 60
11 68 48 17 12 9 66 16 38 54 46 50 1 4
